(set-info :Origin "This instance was generated by: BanditFuzz-- an RL fuzzer for SMT solvers" )
(set-info :Author "Joe Scott, Fed Mora, Vijay Ganesh" )
(set-info :Contact "Joe Scott, joseph.scott@uwaterloo.ca")
; solvers/z3.sh
; 	time => 0.3941066265106201
; 	answer => sat
; solvers/bitwuzla.sh
; 	time => 0.16636013984680176
; 	answer => sat
; solvers/cvc4.sh
; 	time => 0.10471892356872559
; 	answer => err
(set-logic QF_BV)
(declare-const bool_0 Bool)
(declare-const bool_1 Bool)
(declare-const bool_2 Bool)
(declare-const bool_3 Bool)
(declare-const bool_4 Bool)
(declare-const bv_0 (_ BitVec 32))
(declare-const bv_1 (_ BitVec 32))
(declare-const bv_2 (_ BitVec 32))
(declare-const bv_3 (_ BitVec 32))
(declare-const bv_4 (_ BitVec 32))
(assert (bvsle (bvshl (bvadd #x090b42c5  bv_0) (bvxor #x59d6e150  bv_4)) (bvlshr (bvadd bv_2 #xc34468c9 ) (bvsmod bv_4 bv_3))))
(assert (bvule (bvashr (bvsrem #x3e57f22f  bv_4) (bvxnor #x33beac50  #xbfbd69ff )) (bvsub (bvnor #xdd2591b2  #x59e6b901 ) (bvxnor bv_2 #x79ad2852 ))))
(assert (bvuge (bvadd (bvashr bv_4 bv_3) (bvor bv_4 bv_0)) (bvnand (bvnor bv_0 bv_2) (bvshl bv_1 bv_2))))
(assert (not (bvult (bvsub #x4e8980d6  bv_2) (bvshl bv_4 #x94f0b25a ))))
(assert (xor (bvult (bvor bv_4 bv_0) (bvxor #x8d107c78  bv_1)) (=> (or false true) (bvsle #xd18656ea  bv_1))))
(check-sat)
(exit)
